8 965
539 7 515 7 439 11
525 7 482 7 365 7 115 9 943 13
525 7 445 7 264 7 63 9 889 11 721 18
525 7 445 7 264 7 63 9 877 13
520 7 441 7 347 7 188 9 17 11 840 15 711 23
525 7 479 7 355 7 106 9 931 13
525 7 504 7 362 7 209 9 25 11 818 15 619 21
525 7 504 7 362 7 209 9 25 11 818 15 619 21
